numAceitesV=2;
numAceitesN=3;
numMeses=6;
VALOR=90;
MAXV=3500;
MAXN=4050;
MCAP=[1000,2000,1000,2000,1000];
MaxDurezas=8.9;
CA=[|11,12,13,11,11
    |13,13,11,9,11
    |11,14,13,10,9
    |10, 12, 15, 11, 10
    |9, 10, 14, 8, 13
    |11,9,10,11,8|];
  

MinD=1;
MaxD=10;
durezas=[8.8,6.1,2.0,4.2,5.0];
toneladas=[500,600,300,450,370];
MinB=10000;
precios=[|110,120,130,110,115
          |130,130,110,90,115
          |110,140,130,100,95
          |100, 120, 150, 110, 105
          |70, 80, 120, 60, 115
          |90, 100, 140, 80, 135|];